HFSDDW
15	8	4
0	23	1	21	2	46	3	83
0	43	1	54	2	95	3	69
0	94	1	34	2	84	3	43
0	97	1	81	2	30	3	97
0	46	1	37	2	48	3	29
0	81	1	59	2	37	3	86
0	66	1	51	2	83	3	11
0	89	1	98	2	37	3	99
0	26	1	87	2	43	3	63
0	53	1	89	2	58	3	13
0	68	1	64	2	54	3	52
0	84	1	81	2	60	3	19
0	82	1	13	2	59	3	26
0	31	1	37	2	93	3	64
0	83	1	59	2	18	3	92
LBCmax: 602
RELDUE
-1	607	2	1
-1	693	8	1
-1	661	8	9
-1	758	6	3
-1	767	7	4
-1	693	1	7
-1	282	9	9
-1	246	8	8
-1	414	9	7
-1	581	6	4
-1	445	8	8
-1	519	6	5
-1	660	9	6
-1	389	5	8
-1	545	2	7
DDW
601	613
658	728
595	727
697	819
706	828
651	735
254	310
231	261
397	431
575	587
441	449
488	550
653	667
366	412
496	594
